3 2 3 
2 2 1 3 1 43 2 45 3 41 2 2 2 39 3 34 2 1 2 2 64 3 62 2 3 1 74 2 65 3 73 
2 2 1 3 1 37 2 35 3 34 2 3 1 48 2 54 3 48 2 1 1 3 34 2 1 2 23 
2 2 1 3 1 22 2 20 3 22 2 2 1 32 3 35 2 1 1 3 46 2 3 1 41 2 38 3 38 
